c description: Tseitin formula on , with even charge
c generator: CNFgen (0.9.0)
c copyright: (C) 2012-2020 Massimo Lauria <massimo.lauria@uniroma1.it>
c url: https://massimolauria.net/cnfgen
c
p cnf 40 328
1 2 3 -4 0
1 2 -3 4 0
1 -2 3 4 0
1 -2 -3 -4 0
-1 2 3 4 0
-1 2 -3 -4 0
-1 -2 3 -4 0
-1 -2 -3 4 0
5 6 7 8 -9 0
5 6 7 -8 9 0
5 6 -7 8 9 0
5 6 -7 -8 -9 0
5 -6 7 8 9 0
5 -6 7 -8 -9 0
5 -6 -7 8 -9 0
5 -6 -7 -8 9 0
-5 6 7 8 9 0
-5 6 7 -8 -9 0
-5 6 -7 8 -9 0
-5 6 -7 -8 9 0
-5 -6 7 8 -9 0
-5 -6 7 -8 9 0
-5 -6 -7 8 9 0
-5 -6 -7 -8 -9 0
10 11 -12 0
10 -11 12 0
-10 11 12 0
-10 -11 -12 0
1 13 14 -15 0
1 13 -14 15 0
1 -13 14 15 0
1 -13 -14 -15 0
-1 13 14 15 0
-1 13 -14 -15 0
-1 -13 14 -15 0
-1 -13 -14 15 0
5 -16 0
-5 16 0
10 17 -18 0
10 -17 18 0
-10 17 18 0
-10 -17 -18 0
2 11 -19 0
2 -11 19 0
-2 11 19 0
-2 -11 -19 0
6 13 20 21 22 23 -24 0
6 13 20 21 22 -23 24 0
6 13 20 21 -22 23 24 0
6 13 20 21 -22 -23 -24 0
6 13 20 -21 22 23 24 0
6 13 20 -21 22 -23 -24 0
6 13 20 -21 -22 23 -24 0
6 13 20 -21 -22 -23 24 0
6 13 -20 21 22 23 24 0
6 13 -20 21 22 -23 -24 0
6 13 -20 21 -22 23 -24 0
6 13 -20 21 -22 -23 24 0
6 13 -20 -21 22 23 -24 0
6 13 -20 -21 22 -23 24 0
6 13 -20 -21 -22 23 24 0
6 13 -20 -21 -22 -23 -24 0
6 -13 20 21 22 23 24 0
6 -13 20 21 22 -23 -24 0
6 -13 20 21 -22 23 -24 0
6 -13 20 21 -22 -23 24 0
6 -13 20 -21 22 23 -24 0
6 -13 20 -21 22 -23 24 0
6 -13 20 -21 -22 23 24 0
6 -13 20 -21 -22 -23 -24 0
6 -13 -20 21 22 23 -24 0
6 -13 -20 21 22 -23 24 0
6 -13 -20 21 -22 23 24 0
6 -13 -20 21 -22 -23 -24 0
6 -13 -20 -21 22 23 24 0
6 -13 -20 -21 22 -23 -24 0
6 -13 -20 -21 -22 23 -24 0
6 -13 -20 -21 -22 -23 24 0
-6 13 20 21 22 23 24 0
-6 13 20 21 22 -23 -24 0
-6 13 20 21 -22 23 -24 0
-6 13 20 21 -22 -23 24 0
-6 13 20 -21 22 23 -24 0
-6 13 20 -21 22 -23 24 0
-6 13 20 -21 -22 23 24 0
-6 13 20 -21 -22 -23 -24 0
-6 13 -20 21 22 23 -24 0
-6 13 -20 21 22 -23 24 0
-6 13 -20 21 -22 23 24 0
-6 13 -20 21 -22 -23 -24 0
-6 13 -20 -21 22 23 24 0
-6 13 -20 -21 22 -23 -24 0
-6 13 -20 -21 -22 23 -24 0
-6 13 -20 -21 -22 -23 24 0
-6 -13 20 21 22 23 -24 0
-6 -13 20 21 22 -23 24 0
-6 -13 20 21 -22 23 24 0
-6 -13 20 21 -22 -23 -24 0
-6 -13 20 -21 22 23 24 0
-6 -13 20 -21 22 -23 -24 0
-6 -13 20 -21 -22 23 -24 0
-6 -13 20 -21 -22 -23 24 0
-6 -13 -20 21 22 23 24 0
-6 -13 -20 21 22 -23 -24 0
-6 -13 -20 21 -22 23 -24 0
-6 -13 -20 21 -22 -23 24 0
-6 -13 -20 -21 22 23 -24 0
-6 -13 -20 -21 22 -23 24 0
-6 -13 -20 -21 -22 23 24 0
-6 -13 -20 -21 -22 -23 -24 0
20 25 26 -27 0
20 25 -26 27 0
20 -25 26 27 0
20 -25 -26 -27 0
-20 25 26 27 0
-20 25 -26 -27 0
-20 -25 26 -27 0
-20 -25 -26 27 0
7 25 -28 0
7 -25 28 0
-7 25 28 0
-7 -25 -28 0
3 17 21 29 -30 0
3 17 21 -29 30 0
3 17 -21 29 30 0
3 17 -21 -29 -30 0
3 -17 21 29 30 0
3 -17 21 -29 -30 0
3 -17 -21 29 -30 0
3 -17 -21 -29 30 0
-3 17 21 29 30 0
-3 17 21 -29 -30 0
-3 17 -21 29 -30 0
-3 17 -21 -29 30 0
-3 -17 21 29 -30 0
-3 -17 21 -29 30 0
-3 -17 -21 29 30 0
-3 -17 -21 -29 -30 0
8 31 32 -33 0
8 31 -32 33 0
8 -31 32 33 0
8 -31 -32 -33 0
-8 31 32 33 0
-8 31 -32 -33 0
-8 -31 32 -33 0
-8 -31 -32 33 0
14 22 -34 0
14 -22 34 0
-14 22 34 0
-14 -22 -34 0
31 35 36 -37 0
31 35 -36 37 0
31 -35 36 37 0
31 -35 -36 -37 0
-31 35 36 37 0
-31 35 -36 -37 0
-31 -35 36 -37 0
-31 -35 -36 37 0
18 26 29 35 -38 0
18 26 29 -35 38 0
18 26 -29 35 38 0
18 26 -29 -35 -38 0
18 -26 29 35 38 0
18 -26 29 -35 -38 0
18 -26 -29 35 -38 0
18 -26 -29 -35 38 0
-18 26 29 35 38 0
-18 26 29 -35 -38 0
-18 26 -29 35 -38 0
-18 26 -29 -35 38 0
-18 -26 29 35 -38 0
-18 -26 29 -35 38 0
-18 -26 -29 35 38 0
-18 -26 -29 -35 -38 0
32 38 -39 0
32 -38 39 0
-32 38 39 0
-32 -38 -39 0
4 23 30 34 -36 0
4 23 30 -34 36 0
4 23 -30 34 36 0
4 23 -30 -34 -36 0
4 -23 30 34 36 0
4 -23 30 -34 -36 0
4 -23 -30 34 -36 0
4 -23 -30 -34 36 0
-4 23 30 34 36 0
-4 23 30 -34 -36 0
-4 23 -30 34 -36 0
-4 23 -30 -34 36 0
-4 -23 30 34 -36 0
-4 -23 30 -34 36 0
-4 -23 -30 34 36 0
-4 -23 -30 -34 -36 0
27 -37 0
-27 37 0
28 39 -40 0
28 -39 40 0
-28 39 40 0
-28 -39 -40 0
9 12 15 16 19 24 33 -40 0
9 12 15 16 19 24 -33 40 0
9 12 15 16 19 -24 33 40 0
9 12 15 16 19 -24 -33 -40 0
9 12 15 16 -19 24 33 40 0
9 12 15 16 -19 24 -33 -40 0
9 12 15 16 -19 -24 33 -40 0
9 12 15 16 -19 -24 -33 40 0
9 12 15 -16 19 24 33 40 0
9 12 15 -16 19 24 -33 -40 0
9 12 15 -16 19 -24 33 -40 0
9 12 15 -16 19 -24 -33 40 0
9 12 15 -16 -19 24 33 -40 0
9 12 15 -16 -19 24 -33 40 0
9 12 15 -16 -19 -24 33 40 0
9 12 15 -16 -19 -24 -33 -40 0
9 12 -15 16 19 24 33 40 0
9 12 -15 16 19 24 -33 -40 0
9 12 -15 16 19 -24 33 -40 0
9 12 -15 16 19 -24 -33 40 0
9 12 -15 16 -19 24 33 -40 0
9 12 -15 16 -19 24 -33 40 0
9 12 -15 16 -19 -24 33 40 0
9 12 -15 16 -19 -24 -33 -40 0
9 12 -15 -16 19 24 33 -40 0
9 12 -15 -16 19 24 -33 40 0
9 12 -15 -16 19 -24 33 40 0
9 12 -15 -16 19 -24 -33 -40 0
9 12 -15 -16 -19 24 33 40 0
9 12 -15 -16 -19 24 -33 -40 0
9 12 -15 -16 -19 -24 33 -40 0
9 12 -15 -16 -19 -24 -33 40 0
9 -12 15 16 19 24 33 40 0
9 -12 15 16 19 24 -33 -40 0
9 -12 15 16 19 -24 33 -40 0
9 -12 15 16 19 -24 -33 40 0
9 -12 15 16 -19 24 33 -40 0
9 -12 15 16 -19 24 -33 40 0
9 -12 15 16 -19 -24 33 40 0
9 -12 15 16 -19 -24 -33 -40 0
9 -12 15 -16 19 24 33 -40 0
9 -12 15 -16 19 24 -33 40 0
9 -12 15 -16 19 -24 33 40 0
9 -12 15 -16 19 -24 -33 -40 0
9 -12 15 -16 -19 24 33 40 0
9 -12 15 -16 -19 24 -33 -40 0
9 -12 15 -16 -19 -24 33 -40 0
9 -12 15 -16 -19 -24 -33 40 0
9 -12 -15 16 19 24 33 -40 0
9 -12 -15 16 19 24 -33 40 0
9 -12 -15 16 19 -24 33 40 0
9 -12 -15 16 19 -24 -33 -40 0
9 -12 -15 16 -19 24 33 40 0
9 -12 -15 16 -19 24 -33 -40 0
9 -12 -15 16 -19 -24 33 -40 0
9 -12 -15 16 -19 -24 -33 40 0
9 -12 -15 -16 19 24 33 40 0
9 -12 -15 -16 19 24 -33 -40 0
9 -12 -15 -16 19 -24 33 -40 0
9 -12 -15 -16 19 -24 -33 40 0
9 -12 -15 -16 -19 24 33 -40 0
9 -12 -15 -16 -19 24 -33 40 0
9 -12 -15 -16 -19 -24 33 40 0
9 -12 -15 -16 -19 -24 -33 -40 0
-9 12 15 16 19 24 33 40 0
-9 12 15 16 19 24 -33 -40 0
-9 12 15 16 19 -24 33 -40 0
-9 12 15 16 19 -24 -33 40 0
-9 12 15 16 -19 24 33 -40 0
-9 12 15 16 -19 24 -33 40 0
-9 12 15 16 -19 -24 33 40 0
-9 12 15 16 -19 -24 -33 -40 0
-9 12 15 -16 19 24 33 -40 0
-9 12 15 -16 19 24 -33 40 0
-9 12 15 -16 19 -24 33 40 0
-9 12 15 -16 19 -24 -33 -40 0
-9 12 15 -16 -19 24 33 40 0
-9 12 15 -16 -19 24 -33 -40 0
-9 12 15 -16 -19 -24 33 -40 0
-9 12 15 -16 -19 -24 -33 40 0
-9 12 -15 16 19 24 33 -40 0
-9 12 -15 16 19 24 -33 40 0
-9 12 -15 16 19 -24 33 40 0
-9 12 -15 16 19 -24 -33 -40 0
-9 12 -15 16 -19 24 33 40 0
-9 12 -15 16 -19 24 -33 -40 0
-9 12 -15 16 -19 -24 33 -40 0
-9 12 -15 16 -19 -24 -33 40 0
-9 12 -15 -16 19 24 33 40 0
-9 12 -15 -16 19 24 -33 -40 0
-9 12 -15 -16 19 -24 33 -40 0
-9 12 -15 -16 19 -24 -33 40 0
-9 12 -15 -16 -19 24 33 -40 0
-9 12 -15 -16 -19 24 -33 40 0
-9 12 -15 -16 -19 -24 33 40 0
-9 12 -15 -16 -19 -24 -33 -40 0
-9 -12 15 16 19 24 33 -40 0
-9 -12 15 16 19 24 -33 40 0
-9 -12 15 16 19 -24 33 40 0
-9 -12 15 16 19 -24 -33 -40 0
-9 -12 15 16 -19 24 33 40 0
-9 -12 15 16 -19 24 -33 -40 0
-9 -12 15 16 -19 -24 33 -40 0
-9 -12 15 16 -19 -24 -33 40 0
-9 -12 15 -16 19 24 33 40 0
-9 -12 15 -16 19 24 -33 -40 0
-9 -12 15 -16 19 -24 33 -40 0
-9 -12 15 -16 19 -24 -33 40 0
-9 -12 15 -16 -19 24 33 -40 0
-9 -12 15 -16 -19 24 -33 40 0
-9 -12 15 -16 -19 -24 33 40 0
-9 -12 15 -16 -19 -24 -33 -40 0
-9 -12 -15 16 19 24 33 40 0
-9 -12 -15 16 19 24 -33 -40 0
-9 -12 -15 16 19 -24 33 -40 0
-9 -12 -15 16 19 -24 -33 40 0
-9 -12 -15 16 -19 24 33 -40 0
-9 -12 -15 16 -19 24 -33 40 0
-9 -12 -15 16 -19 -24 33 40 0
-9 -12 -15 16 -19 -24 -33 -40 0
-9 -12 -15 -16 19 24 33 -40 0
-9 -12 -15 -16 19 24 -33 40 0
-9 -12 -15 -16 19 -24 33 40 0
-9 -12 -15 -16 19 -24 -33 -40 0
-9 -12 -15 -16 -19 24 33 40 0
-9 -12 -15 -16 -19 24 -33 -40 0
-9 -12 -15 -16 -19 -24 33 -40 0
-9 -12 -15 -16 -19 -24 -33 40 0